(set-info :smt-lib-version 2.6)
(set-logic LRA)
(set-info :source |
   Monniaux, David; Quantifier Elimination by Lazy Model Enumeration, CAV 2010
|)
(set-info :category "random")
; ./Mjollnir_examples/B5/formula_012.m
(set-info :status unsat)
(assert
 (forall ((|v17:0| Real) )(forall ((|v16:1| Real) )(forall ((|v15:2| Real) )(forall ((|v14:3| Real) )(forall ((|v13:4| Real) )(forall ((|v12:5| Real) )(exists ((|v11:6| Real) )(exists ((|v10:7| Real) )(exists ((|v9:8| Real) )(exists ((|v8:9| Real) )(exists ((|v7:10| Real) )(exists ((|v6:11| Real) )(forall ((|v5:12| Real) )(forall ((|v4:13| Real) )(forall ((|v3:14| Real) )(forall ((|v2:15| Real) )(forall ((|v1:16| Real) )(forall ((|v0:17| Real) )(let ((?x10 2))
(let ((?x402 4))
(let ((?x403 (* ?x402 |v6:11|)))
(let ((?x128 (- 5)))
(let ((?x357 (* ?x128 |v10:7|)))
(let ((?x556 (+ (+ (+ (* 7 |v13:4|) (* (- 7) |v9:8|)) ?x357) ?x403)))
(let ((?x54 (- 18)))
(let ((?x156 13))
(let ((?x413 (* ?x156 |v1:16|)))
(let ((?x188 18))
(let ((?x487 (* ?x188 |v10:7|)))
(let (($x549 (<= (+ (+ (+ (* ?x402 |v13:4|) (* 11 |v15:2|)) ?x487) ?x413) ?x54)))
(let ((?x62 (- 13)))
(let ((?x541 (+ (+ (* (- 1) |v10:7|) (* 20 |v13:4|)) (* (- 19) |v9:8|))))
(let ((?x162 (- 12)))
(let ((?x534 (+ (+ (* (- 2) |v3:14|) (* 12 |v17:0|)) (* 15 |v2:15|))))
(let ((?x527 (+ (+ (* 17 |v11:6|) (* 15 |v1:16|)) (* (- 3) |v4:13|))))
(let (($x538 (and (<= (+ ?x527 (* 19 |v12:5|)) ?x402) (<= (+ ?x534 (* 14 |v15:2|)) ?x162))))
(let (($x558 (or (or $x538 (and (<= (+ ?x541 (* ?x156 |v9:8|)) ?x62) $x549)) (<= ?x556 ?x10))))
(let ((?x65 (- 6)))
(let ((?x517 (+ (+ (* (- 7) |v16:1|) (* (- 10) |v12:5|)) (* ?x162 |v2:15|))))
(let ((?x200 (- 15)))
(let ((?x201 (* ?x200 |v12:5|)))
(let ((?x105 19))
(let ((?x106 (* ?x105 |v10:7|)))
(let ((?x512 (+ (+ (+ (* 6 |v1:16|) (* 17 |v6:11|)) ?x106) ?x201)))
(let ((?x192 15))
(let ((?x69 (- 1)))
(let ((?x502 (* ?x69 |v10:7|)))
(let ((?x505 (+ (+ (+ (* ?x162 |v10:7|) (* (- 19) |v2:15|)) ?x502) (* (- 4) |v14:3|))))
(let ((?x257 (* ?x105 |v0:17|)))
(let ((?x496 (+ (+ (* ?x188 |v4:13|) (* (- 16) |v17:0|)) (* 11 |v1:16|))))
(let (($x521 (or (and (<= (+ ?x496 ?x257) ?x200) (<= ?x505 ?x192)) (or (<= ?x512 ?x162) (<= (+ ?x517 |v7:10|) ?x65)))))
(let ((?x124 5))
(let ((?x14 (- 11)))
(let ((?x399 (* ?x14 |v13:4|)))
(let (($x489 (<= (+ (+ (+ (* ?x62 |v8:9|) (* (- 17) |v14:3|)) ?x399) ?x487) ?x124)))
(let ((?x114 20))
(let ((?x479 (+ (+ (* 16 |v8:9|) (* 8 |v14:3|)) (* (- 2) |v4:13|))))
(let ((?x42 14))
(let ((?x470 (+ (+ (* (- 19) |v15:2|) (* ?x105 |v8:9|)) (* 8 |v13:4|))))
(let ((?x58 (- 19)))
(let ((?x23 (- 10)))
(let ((?x24 (* ?x23 |v15:2|)))
(let ((?x465 (+ (+ (+ (* ?x10 |v6:11|) (* (- 9) |v6:11|)) ?x24) (* (- 4) |v10:7|))))
(let (($x491 (or (and (<= ?x465 ?x58) (<= (+ ?x470 (* ?x10 |v13:4|)) ?x42)) (or (<= (+ ?x479 (* ?x23 |v4:13|)) ?x114) $x489))))
(let ((?x198 (* ?x69 |v2:15|)))
(let ((?x454 (+ (+ (+ (* (- 4) |v9:8|) (* 11 |v9:8|)) ?x198) (* ?x105 |v13:4|))))
(let ((?x225 0))
(let ((?x446 (+ (+ (* 17 |v8:9|) (* ?x200 |v15:2|)) (* 11 |v17:0|))))
(let ((?x439 (+ (+ (+ (* ?x162 |v5:12|) (* ?x62 |v5:12|)) (* (- 4) |v9:8|)) (* ?x188 |v17:0|))))
(let ((?x321 17))
(let ((?x431 (+ (+ (+ (* ?x65 |v16:1|) (* 7 |v4:13|)) (* ?x23 |v13:4|)) (* 3 |v14:3|))))
(let (($x457 (and (and (<= ?x431 ?x321) (<= ?x439 ?x14)) (and (<= (+ ?x446 (* (- 7) |v1:16|)) ?x225) (<= ?x454 ?x62)))))
(let ((?x422 (+ (+ (+ (* ?x58 |v17:0|) (* ?x69 |v13:4|)) (* ?x58 |v1:16|)) (* 8 |v7:10|))))
(let ((?x18 (- 2)))
(let ((?x412 (+ (+ (* (- 3) |v3:14|) (* ?x402 |v4:13|)) (* (- 17) |v16:1|))))
(let (($x407 (<= (+ (+ (+ (* 6 |v8:9|) ?x399) ?x403) (* ?x162 |v12:5|)) 9)))
(let ((?x119 6))
(let ((?x139 (* ?x119 |v8:9|)))
(let ((?x393 (+ (+ (* (- 3) |v0:17|) (* ?x69 |v13:4|)) (* 12 |v2:15|))))
(let ((?x386 (+ (+ (* (- 4) |v1:16|) (* ?x119 |v0:17|)) (* (- 8) |v10:7|))))
(let ((?x380 (+ (+ (+ (* ?x124 |v4:13|) (* ?x225 |v8:9|)) (* ?x119 |v4:13|)) (* 16 |v11:6|))))
(let (($x397 (and (<= ?x380 ?x18) (and (<= (+ ?x386 (* ?x321 |v15:2|)) ?x23) (<= (+ ?x393 ?x139) ?x321)))))
(let ((?x181 10))
(let ((?x370 (+ (+ (+ (* ?x181 |v6:11|) (* (- 16) |v5:12|)) (* ?x10 |v5:12|)) (* ?x225 |v0:17|))))
(let ((?x362 (+ (+ (+ (* ?x156 |v3:14|) ?x357) (* ?x188 |v13:4|)) (* (- 17) |v9:8|))))
(let ((?x353 (+ (+ (+ (* ?x162 |v7:10|) (* ?x62 |v2:15|)) (* (- 7) |v16:1|)) (* ?x119 |v10:7|))))
(let ((?x345 (+ (+ (+ (* ?x62 |v16:1|) (* (- 20) |v6:11|)) (* ?x181 |v7:10|)) (* ?x162 |v0:17|))))
(let (($x373 (and (and (<= ?x345 ?x54) (<= ?x353 ?x114)) (and (<= ?x362 ?x162) (<= ?x370 ?x181)))))
(let (($x459 (and (and $x373 $x397) (and (or (or $x407 (<= (+ ?x412 ?x413) ?x18)) (<= ?x422 ?x192)) $x457))))
(let ((?x142 (- 14)))
(let ((?x333 (+ (+ (+ (* ?x188 |v1:16|) (* ?x42 |v16:1|)) (* (- 3) |v1:16|)) (* ?x225 |v1:16|))))
(let ((?x91 12))
(let (($x327 (<= (+ (+ (+ (* ?x128 |v8:9|) (* ?x321 |v1:16|)) ?x139) (* ?x14 |v10:7|)) ?x91)))
(let ((?x317 (+ (+ (+ (* ?x225 |v4:13|) (* ?x58 |v6:11|)) (* ?x18 |v15:2|)) (* 8 |v8:9|))))
(let ((?x100 8))
(let ((?x250 (- 7)))
(let ((?x255 (* ?x250 |v8:9|)))
(let ((?x309 (+ (+ (+ (* 9 |v7:10|) (* (- 9) |v0:17|)) ?x255) (* (- 17) |v13:4|))))
(let ((?x300 (+ (+ (+ (* ?x18 |v3:14|) (* ?x250 |v17:0|)) (* (- 17) |v10:7|)) (* ?x10 |v3:14|))))
(let (($x337 (or (<= ?x300 ?x42) (or (and (<= ?x309 ?x100) (<= ?x317 ?x42)) (or $x327 (<= ?x333 ?x142))))))
(let ((?x30 16))
(let (($x291 (<= (+ (+ (+ (* ?x250 |v12:5|) ?x139) (* ?x188 |v8:9|)) (* ?x10 |v0:17|)) ?x30)))
(let ((?x284 (- 9)))
(let ((?x283 (+ (+ (+ (* ?x156 |v6:11|) (* ?x23 |v6:11|)) (* ?x188 |v1:16|)) (* (- 4) |v0:17|))))
(let ((?x274 (+ (+ (+ (* ?x114 |v16:1|) (* ?x124 |v10:7|)) (* 11 |v15:2|)) (* ?x54 |v1:16|))))
(let ((?x151 (- 4)))
(let ((?x266 (+ (+ (+ (* ?x30 |v10:7|) (* ?x181 |v5:12|)) (* 11 |v2:15|)) (* 11 |v7:10|))))
(let ((?x249 (+ (+ (+ (* ?x114 |v7:10|) (* ?x91 |v3:14|)) (* ?x119 |v14:3|)) (* ?x10 |v8:9|))))
(let (($x260 (and (<= ?x249 ?x250) (<= (+ (+ (+ (* ?x58 |v15:2|) (* ?x142 |v4:13|)) ?x255) ?x257) ?x91))))
(let (($x239 (<= (+ (+ (+ (* ?x181 |v13:4|) (* ?x91 |v0:17|)) |v8:9|) (* ?x91 |v0:17|)) ?x142)))
(let ((?x231 (* ?x181 |v5:12|)))
(let (($x233 (<= (+ (+ (+ (* ?x225 |v6:11|) (* ?x200 |v2:15|)) (* ?x188 |v8:9|)) ?x231) ?x42)))
(let (($x294 (or (and (or $x233 $x239) $x260) (or (and (<= ?x266 ?x151) (<= ?x274 ?x10)) (or (<= ?x283 ?x284) $x291)))))
(let ((?x216 (+ (+ (* (- 17) |v10:7|) (* ?x91 |v1:16|)) (* (- 20) |v12:5|))))
(let (($x220 (or (<= (+ (+ (+ ?x198 ?x201) (* ?x23 |v6:11|)) (* ?x14 |v17:0|)) ?x188) (<= (+ ?x216 (* ?x200 |v0:17|)) ?x10))))
(let ((?x26 (- 16)))
(let ((?x196 (+ (+ (+ (* (- 3) |v5:12|) (* ?x188 |v11:6|)) (* ?x192 |v10:7|)) (* 11 |v13:4|))))
(let (($x182 (<= (+ (+ (+ (* ?x10 |v7:10|) (* ?x162 |v16:1|)) (* ?x119 |v12:5|)) |v1:16|) ?x181)))
(let ((?x169 (+ (+ (* (- 8) |v15:2|) (* 7 |v7:10|)) (* ?x69 |v6:11|))))
(let ((?x161 (+ (+ (+ (* ?x151 |v12:5|) (* ?x119 |v15:2|)) (* ?x156 |v15:2|)) (* ?x114 |v11:6|))))
(let (($x164 (and (<= (+ (+ (+ ?x139 |v9:8|) (* ?x142 |v7:10|)) (* ?x26 |v9:8|)) ?x58) (<= ?x161 ?x162))))
(let (($x222 (or (or $x164 (and (<= (+ ?x169 (* ?x124 |v0:17|)) 1) $x182)) (or (<= ?x196 ?x26) $x220))))
(let ((?x134 (+ (+ (+ (* ?x114 |v2:15|) (* ?x128 |v8:9|)) (* ?x69 |v7:10|)) (* ?x128 |v2:15|))))
(let ((?x123 (+ (+ (+ (* ?x114 |v13:4|) (* (- 3) |v9:8|)) (* ?x119 |v9:8|)) (* ?x42 |v13:4|))))
(let ((?x109 (+ (+ (+ (* 7 |v17:0|) (* ?x100 |v9:8|)) ?x106) (* ?x58 |v8:9|))))
(let ((?x96 (+ (+ (+ (* ?x23 |v14:3|) (* 7 |v6:11|)) (* ?x91 |v13:4|)) (* ?x91 |v4:13|))))
(let (($x137 (or (or (<= ?x96 ?x58) (<= ?x109 ?x58)) (or (<= ?x123 ?x124) (<= ?x134 ?x128)))))
(let ((?x81 (* (- 8) |v15:2|)))
(let ((?x78 (+ (+ (* ?x69 |v13:4|) (* 3 |v17:0|)) (* 11 |v8:9|))))
(let ((?x63 (* ?x62 |v16:1|)))
(let ((?x64 (+ (+ (+ (* 11 |v2:15|) (* ?x54 |v6:11|)) (* ?x58 |v7:10|)) ?x63)))
(let ((?x45 7))
(let ((?x44 (+ (+ (+ (* ?x30 |v16:1|) (* (- 3) |v2:15|)) (* ?x18 |v9:8|)) (* ?x42 |v0:17|))))
(let (($x27 (<= (+ (+ (+ (* ?x10 |v7:10|) (* ?x14 |v16:1|)) (* ?x18 |v7:10|)) ?x24) ?x26)))
(let (($x85 (or (and $x27 (<= ?x44 ?x45)) (or (<= ?x64 ?x65) (<= (+ ?x78 ?x81) ?x54)))))
(and (or (or (or $x85 $x137) $x222) (or $x294 $x337)) (and $x459 (or (or $x491 $x521) $x558)))))))))))))))))))))))))))))))))))))))))))))))))))))))))))))))))))))))))))))))))))))))))))))))))))))))))))))))))))))))))
)
)
)
)
)
)
)
)
)
)
)
)
)
)
)
)
)
)
(check-sat)
(exit)

